p cnf 7230 16
-1988 2699 0
-1518 -1998 -2706 0
1518 -2707 0
2706 2707 0
2704 2705 0
1994 -2705 0
-1994 -2704 0
2702 2703 0
1992 -2703 0
-1992 -2702 0
2700 2701 0
1990 -2701 0
-1990 -2700 0
1998 -2707 0
-2698 -2699 0
2698 2699 0
